c colouring generated by benchmark framework
p edge 23 71
v 1 4
v 2 1
v 3 4
v 4 3
v 5 0
v 6 0
v 7 2
v 8 2
v 9 1
v 10 1
v 11 4
v 12 0
v 13 1
v 14 3
v 15 2
v 16 0
v 17 0
v 18 3
v 19 2
v 20 3
v 21 2
v 22 3
v 23 4
